
        $ From http://www.csplib.org/Problems/prob009/data/helmut.pdf
        $ Problem number 32
        $ Sequence length : 24
        language ESSENCE' 1.0
        letting sizemaster be 255
        letting sizes be sequence(3,5,10,11,16,17,20,22,23,25,26,27,28,32,41,44,52,53,59,63,65,74,118,137)
        